32 32
6 3
1 7
8 1
10 1
10 8
1 6
5 5
2 4
4 4
2 1
3 9
5 10
7 9
10 9
8 4
5 2
2 9
5 10
4 2
6 7
7 9
9 6
6 4
9 1
1 5
9 1
1 1
6 4
2 6
9 9
9 3
5 1
10 11 59
19 18 60
10 20 75
11 19 84
12 19 66
12 19 97
16 14 85
14 19 61
16 11 63
19 19 67
20 16 64
10 11 85
15 11 92
10 19 71
15 16 95
18 14 51
14 15 52
10 15 61
12 15 98
12 20 71
11 13 73
14 13 55
11 15 51
12 14 51
16 14 82
16 16 85
18 11 52
13 10 98
20 20 60
10 13 80
14 17 88
10 12 53
